\ Model Transportation Problem with Time-Dependent Costs
\ LP format - for model browsing. Use MPS format to capture full model detail.
Minimize
  2 x[0,0,0] + 2 x[0,0,1] + 2 x[0,0,2] + 2 x[0,0,3] + 2 x[0,0,4]
   + 2 x[0,0,5] + 2 x[0,0,6] + 2 x[0,0,7] + 2 x[0,0,8] + 2 x[0,0,9]
   + 2 x[0,1,0] + 2 x[0,1,1] + 2 x[0,1,2] + 2 x[0,1,3] + 2 x[0,1,4]
   + 2 x[0,1,5] + 2 x[0,1,6] + 2 x[0,1,7] + 2 x[0,1,8] + 2 x[0,1,9]
   + 2 x[0,2,0] + 2 x[0,2,1] + 2 x[0,2,2] + 2 x[0,2,3] + 2 x[0,2,4]
   + 2 x[0,2,5] + 2 x[0,2,6] + 2 x[0,2,7] + 2 x[0,2,8] + 2 x[0,2,9]
   + 2 x[0,3,0] + 2 x[0,3,1] + 2 x[0,3,2] + 2 x[0,3,3] + 2 x[0,3,4]
   + 2 x[0,3,5] + 2 x[0,3,6] + 2 x[0,3,7] + 2 x[0,3,8] + 2 x[0,3,9]
   + 2 x[0,4,0] + 2 x[0,4,1] + 2 x[0,4,2] + 2 x[0,4,3] + 2 x[0,4,4]
   + 2 x[0,4,5] + 2 x[0,4,6] + 2 x[0,4,7] + 2 x[0,4,8] + 2 x[0,4,9]
   + 2 x[0,5,0] + 2 x[0,5,1] + 2 x[0,5,2] + 2 x[0,5,3] + 2 x[0,5,4]
   + 2 x[0,5,5] + 2 x[0,5,6] + 2 x[0,5,7] + 2 x[0,5,8] + 2 x[0,5,9]
   + 2 x[0,6,0] + 2 x[0,6,1] + 2 x[0,6,2] + 2 x[0,6,3] + 2 x[0,6,4]
   + 2 x[0,6,5] + 2 x[0,6,6] + 2 x[0,6,7] + 2 x[0,6,8] + 2 x[0,6,9]
   + 2 x[1,0,0] + 2 x[1,0,1] + 2 x[1,0,2] + 2 x[1,0,3] + 2 x[1,0,4]
   + 2 x[1,0,5] + 2 x[1,0,6] + 2 x[1,0,7] + 2 x[1,0,8] + 2 x[1,0,9]
   + 2 x[1,1,0] + 2 x[1,1,1] + 2 x[1,1,2] + 2 x[1,1,3] + 2 x[1,1,4]
   + 2 x[1,1,5] + 2 x[1,1,6] + 2 x[1,1,7] + 2 x[1,1,8] + 2 x[1,1,9]
   + 2 x[1,2,0] + 2 x[1,2,1] + 2 x[1,2,2] + 2 x[1,2,3] + 2 x[1,2,4]
   + 2 x[1,2,5] + 2 x[1,2,6] + 2 x[1,2,7] + 2 x[1,2,8] + 2 x[1,2,9]
   + 2 x[1,3,0] + 2 x[1,3,1] + 2 x[1,3,2] + 2 x[1,3,3] + 2 x[1,3,4]
   + 2 x[1,3,5] + 2 x[1,3,6] + 2 x[1,3,7] + 2 x[1,3,8] + 2 x[1,3,9]
   + 2 x[1,4,0] + 2 x[1,4,1] + 2 x[1,4,2] + 2 x[1,4,3] + 2 x[1,4,4]
   + 2 x[1,4,5] + 2 x[1,4,6] + 2 x[1,4,7] + 2 x[1,4,8] + 2 x[1,4,9]
   + 2 x[1,5,0] + 2 x[1,5,1] + 2 x[1,5,2] + 2 x[1,5,3] + 2 x[1,5,4]
   + 2 x[1,5,5] + 2 x[1,5,6] + 2 x[1,5,7] + 2 x[1,5,8] + 2 x[1,5,9]
   + 2 x[1,6,0] + 2 x[1,6,1] + 2 x[1,6,2] + 2 x[1,6,3] + 2 x[1,6,4]
   + 2 x[1,6,5] + 2 x[1,6,6] + 2 x[1,6,7] + 2 x[1,6,8] + 2 x[1,6,9]
   + 2 x[2,0,0] + 2 x[2,0,1] + 2 x[2,0,2] + 2 x[2,0,3] + 2 x[2,0,4]
   + 2 x[2,0,5] + 2 x[2,0,6] + 2 x[2,0,7] + 2 x[2,0,8] + 2 x[2,0,9]
   + 2 x[2,1,0] + 2 x[2,1,1] + 2 x[2,1,2] + 2 x[2,1,3] + 2 x[2,1,4]
   + 2 x[2,1,5] + 2 x[2,1,6] + 2 x[2,1,7] + 2 x[2,1,8] + 2 x[2,1,9]
   + 2 x[2,2,0] + 2 x[2,2,1] + 2 x[2,2,2] + 2 x[2,2,3] + 2 x[2,2,4]
   + 2 x[2,2,5] + 2 x[2,2,6] + 2 x[2,2,7] + 2 x[2,2,8] + 2 x[2,2,9]
   + 2 x[2,3,0] + 2 x[2,3,1] + 2 x[2,3,2] + 2 x[2,3,3] + 2 x[2,3,4]
   + 2 x[2,3,5] + 2 x[2,3,6] + 2 x[2,3,7] + 2 x[2,3,8] + 2 x[2,3,9]
   + 2 x[2,4,0] + 2 x[2,4,1] + 2 x[2,4,2] + 2 x[2,4,3] + 2 x[2,4,4]
   + 2 x[2,4,5] + 2 x[2,4,6] + 2 x[2,4,7] + 2 x[2,4,8] + 2 x[2,4,9]
   + 2 x[2,5,0] + 2 x[2,5,1] + 2 x[2,5,2] + 2 x[2,5,3] + 2 x[2,5,4]
   + 2 x[2,5,5] + 2 x[2,5,6] + 2 x[2,5,7] + 2 x[2,5,8] + 2 x[2,5,9]
   + 2 x[2,6,0] + 2 x[2,6,1] + 2 x[2,6,2] + 2 x[2,6,3] + 2 x[2,6,4]
   + 2 x[2,6,5] + 2 x[2,6,6] + 2 x[2,6,7] + 2 x[2,6,8] + 2 x[2,6,9]
   + 2 x[3,0,0] + 2 x[3,0,1] + 2 x[3,0,2] + 2 x[3,0,3] + 2 x[3,0,4]
   + 2 x[3,0,5] + 2 x[3,0,6] + 2 x[3,0,7] + 2 x[3,0,8] + 2 x[3,0,9]
   + 2 x[3,1,0] + 2 x[3,1,1] + 2 x[3,1,2] + 2 x[3,1,3] + 2 x[3,1,4]
   + 2 x[3,1,5] + 2 x[3,1,6] + 2 x[3,1,7] + 2 x[3,1,8] + 2 x[3,1,9]
   + 2 x[3,2,0] + 2 x[3,2,1] + 2 x[3,2,2] + 2 x[3,2,3] + 2 x[3,2,4]
   + 2 x[3,2,5] + 2 x[3,2,6] + 2 x[3,2,7] + 2 x[3,2,8] + 2 x[3,2,9]
   + 2 x[3,3,0] + 2 x[3,3,1] + 2 x[3,3,2] + 2 x[3,3,3] + 2 x[3,3,4]
   + 2 x[3,3,5] + 2 x[3,3,6] + 2 x[3,3,7] + 2 x[3,3,8] + 2 x[3,3,9]
   + 2 x[3,4,0] + 2 x[3,4,1] + 2 x[3,4,2] + 2 x[3,4,3] + 2 x[3,4,4]
   + 2 x[3,4,5] + 2 x[3,4,6] + 2 x[3,4,7] + 2 x[3,4,8] + 2 x[3,4,9]
   + 2 x[3,5,0] + 2 x[3,5,1] + 2 x[3,5,2] + 2 x[3,5,3] + 2 x[3,5,4]
   + 2 x[3,5,5] + 2 x[3,5,6] + 2 x[3,5,7] + 2 x[3,5,8] + 2 x[3,5,9]
   + 2 x[3,6,0] + 2 x[3,6,1] + 2 x[3,6,2] + 2 x[3,6,3] + 2 x[3,6,4]
   + 2 x[3,6,5] + 2 x[3,6,6] + 2 x[3,6,7] + 2 x[3,6,8] + 2 x[3,6,9]
   + 2 x[4,0,0] + 2 x[4,0,1] + 2 x[4,0,2] + 2 x[4,0,3] + 2 x[4,0,4]
   + 2 x[4,0,5] + 2 x[4,0,6] + 2 x[4,0,7] + 2 x[4,0,8] + 2 x[4,0,9]
   + 2 x[4,1,0] + 2 x[4,1,1] + 2 x[4,1,2] + 2 x[4,1,3] + 2 x[4,1,4]
   + 2 x[4,1,5] + 2 x[4,1,6] + 2 x[4,1,7] + 2 x[4,1,8] + 2 x[4,1,9]
   + 2 x[4,2,0] + 2 x[4,2,1] + 2 x[4,2,2] + 2 x[4,2,3] + 2 x[4,2,4]
   + 2 x[4,2,5] + 2 x[4,2,6] + 2 x[4,2,7] + 2 x[4,2,8] + 2 x[4,2,9]
   + 2 x[4,3,0] + 2 x[4,3,1] + 2 x[4,3,2] + 2 x[4,3,3] + 2 x[4,3,4]
   + 2 x[4,3,5] + 2 x[4,3,6] + 2 x[4,3,7] + 2 x[4,3,8] + 2 x[4,3,9]
   + 2 x[4,4,0] + 2 x[4,4,1] + 2 x[4,4,2] + 2 x[4,4,3] + 2 x[4,4,4]
   + 2 x[4,4,5] + 2 x[4,4,6] + 2 x[4,4,7] + 2 x[4,4,8] + 2 x[4,4,9]
   + 2 x[4,5,0] + 2 x[4,5,1] + 2 x[4,5,2] + 2 x[4,5,3] + 2 x[4,5,4]
   + 2 x[4,5,5] + 2 x[4,5,6] + 2 x[4,5,7] + 2 x[4,5,8] + 2 x[4,5,9]
   + 2 x[4,6,0] + 2 x[4,6,1] + 2 x[4,6,2] + 2 x[4,6,3] + 2 x[4,6,4]
   + 2 x[4,6,5] + 2 x[4,6,6] + 2 x[4,6,7] + 2 x[4,6,8] + 2 x[4,6,9]
Subject To
 supply_0_time_0: x[0,0,0] + x[0,1,0] + x[0,2,0] + x[0,3,0] + x[0,4,0]
   + x[0,5,0] + x[0,6,0] <= 20
 supply_0_time_1: x[0,0,1] + x[0,1,1] + x[0,2,1] + x[0,3,1] + x[0,4,1]
   + x[0,5,1] + x[0,6,1] <= 20
 supply_0_time_2: x[0,0,2] + x[0,1,2] + x[0,2,2] + x[0,3,2] + x[0,4,2]
   + x[0,5,2] + x[0,6,2] <= 20
 supply_0_time_3: x[0,0,3] + x[0,1,3] + x[0,2,3] + x[0,3,3] + x[0,4,3]
   + x[0,5,3] + x[0,6,3] <= 20
 supply_0_time_4: x[0,0,4] + x[0,1,4] + x[0,2,4] + x[0,3,4] + x[0,4,4]
   + x[0,5,4] + x[0,6,4] <= 20
 supply_0_time_5: x[0,0,5] + x[0,1,5] + x[0,2,5] + x[0,3,5] + x[0,4,5]
   + x[0,5,5] + x[0,6,5] <= 20
 supply_0_time_6: x[0,0,6] + x[0,1,6] + x[0,2,6] + x[0,3,6] + x[0,4,6]
   + x[0,5,6] + x[0,6,6] <= 20
 supply_0_time_7: x[0,0,7] + x[0,1,7] + x[0,2,7] + x[0,3,7] + x[0,4,7]
   + x[0,5,7] + x[0,6,7] <= 20
 supply_0_time_8: x[0,0,8] + x[0,1,8] + x[0,2,8] + x[0,3,8] + x[0,4,8]
   + x[0,5,8] + x[0,6,8] <= 20
 supply_0_time_9: x[0,0,9] + x[0,1,9] + x[0,2,9] + x[0,3,9] + x[0,4,9]
   + x[0,5,9] + x[0,6,9] <= 20
 supply_1_time_0: x[1,0,0] + x[1,1,0] + x[1,2,0] + x[1,3,0] + x[1,4,0]
   + x[1,5,0] + x[1,6,0] <= 20
 supply_1_time_1: x[1,0,1] + x[1,1,1] + x[1,2,1] + x[1,3,1] + x[1,4,1]
   + x[1,5,1] + x[1,6,1] <= 20
 supply_1_time_2: x[1,0,2] + x[1,1,2] + x[1,2,2] + x[1,3,2] + x[1,4,2]
   + x[1,5,2] + x[1,6,2] <= 20
 supply_1_time_3: x[1,0,3] + x[1,1,3] + x[1,2,3] + x[1,3,3] + x[1,4,3]
   + x[1,5,3] + x[1,6,3] <= 20
 supply_1_time_4: x[1,0,4] + x[1,1,4] + x[1,2,4] + x[1,3,4] + x[1,4,4]
   + x[1,5,4] + x[1,6,4] <= 20
 supply_1_time_5: x[1,0,5] + x[1,1,5] + x[1,2,5] + x[1,3,5] + x[1,4,5]
   + x[1,5,5] + x[1,6,5] <= 20
 supply_1_time_6: x[1,0,6] + x[1,1,6] + x[1,2,6] + x[1,3,6] + x[1,4,6]
   + x[1,5,6] + x[1,6,6] <= 20
 supply_1_time_7: x[1,0,7] + x[1,1,7] + x[1,2,7] + x[1,3,7] + x[1,4,7]
   + x[1,5,7] + x[1,6,7] <= 20
 supply_1_time_8: x[1,0,8] + x[1,1,8] + x[1,2,8] + x[1,3,8] + x[1,4,8]
   + x[1,5,8] + x[1,6,8] <= 20
 supply_1_time_9: x[1,0,9] + x[1,1,9] + x[1,2,9] + x[1,3,9] + x[1,4,9]
   + x[1,5,9] + x[1,6,9] <= 20
 supply_2_time_0: x[2,0,0] + x[2,1,0] + x[2,2,0] + x[2,3,0] + x[2,4,0]
   + x[2,5,0] + x[2,6,0] <= 20
 supply_2_time_1: x[2,0,1] + x[2,1,1] + x[2,2,1] + x[2,3,1] + x[2,4,1]
   + x[2,5,1] + x[2,6,1] <= 20
 supply_2_time_2: x[2,0,2] + x[2,1,2] + x[2,2,2] + x[2,3,2] + x[2,4,2]
   + x[2,5,2] + x[2,6,2] <= 20
 supply_2_time_3: x[2,0,3] + x[2,1,3] + x[2,2,3] + x[2,3,3] + x[2,4,3]
   + x[2,5,3] + x[2,6,3] <= 20
 supply_2_time_4: x[2,0,4] + x[2,1,4] + x[2,2,4] + x[2,3,4] + x[2,4,4]
   + x[2,5,4] + x[2,6,4] <= 20
 supply_2_time_5: x[2,0,5] + x[2,1,5] + x[2,2,5] + x[2,3,5] + x[2,4,5]
   + x[2,5,5] + x[2,6,5] <= 20
 supply_2_time_6: x[2,0,6] + x[2,1,6] + x[2,2,6] + x[2,3,6] + x[2,4,6]
   + x[2,5,6] + x[2,6,6] <= 20
 supply_2_time_7: x[2,0,7] + x[2,1,7] + x[2,2,7] + x[2,3,7] + x[2,4,7]
   + x[2,5,7] + x[2,6,7] <= 20
 supply_2_time_8: x[2,0,8] + x[2,1,8] + x[2,2,8] + x[2,3,8] + x[2,4,8]
   + x[2,5,8] + x[2,6,8] <= 20
 supply_2_time_9: x[2,0,9] + x[2,1,9] + x[2,2,9] + x[2,3,9] + x[2,4,9]
   + x[2,5,9] + x[2,6,9] <= 20
 supply_3_time_0: x[3,0,0] + x[3,1,0] + x[3,2,0] + x[3,3,0] + x[3,4,0]
   + x[3,5,0] + x[3,6,0] <= 20
 supply_3_time_1: x[3,0,1] + x[3,1,1] + x[3,2,1] + x[3,3,1] + x[3,4,1]
   + x[3,5,1] + x[3,6,1] <= 20
 supply_3_time_2: x[3,0,2] + x[3,1,2] + x[3,2,2] + x[3,3,2] + x[3,4,2]
   + x[3,5,2] + x[3,6,2] <= 20
 supply_3_time_3: x[3,0,3] + x[3,1,3] + x[3,2,3] + x[3,3,3] + x[3,4,3]
   + x[3,5,3] + x[3,6,3] <= 20
 supply_3_time_4: x[3,0,4] + x[3,1,4] + x[3,2,4] + x[3,3,4] + x[3,4,4]
   + x[3,5,4] + x[3,6,4] <= 20
 supply_3_time_5: x[3,0,5] + x[3,1,5] + x[3,2,5] + x[3,3,5] + x[3,4,5]
   + x[3,5,5] + x[3,6,5] <= 20
 supply_3_time_6: x[3,0,6] + x[3,1,6] + x[3,2,6] + x[3,3,6] + x[3,4,6]
   + x[3,5,6] + x[3,6,6] <= 20
 supply_3_time_7: x[3,0,7] + x[3,1,7] + x[3,2,7] + x[3,3,7] + x[3,4,7]
   + x[3,5,7] + x[3,6,7] <= 20
 supply_3_time_8: x[3,0,8] + x[3,1,8] + x[3,2,8] + x[3,3,8] + x[3,4,8]
   + x[3,5,8] + x[3,6,8] <= 20
 supply_3_time_9: x[3,0,9] + x[3,1,9] + x[3,2,9] + x[3,3,9] + x[3,4,9]
   + x[3,5,9] + x[3,6,9] <= 20
 supply_4_time_0: x[4,0,0] + x[4,1,0] + x[4,2,0] + x[4,3,0] + x[4,4,0]
   + x[4,5,0] + x[4,6,0] <= 20
 supply_4_time_1: x[4,0,1] + x[4,1,1] + x[4,2,1] + x[4,3,1] + x[4,4,1]
   + x[4,5,1] + x[4,6,1] <= 20
 supply_4_time_2: x[4,0,2] + x[4,1,2] + x[4,2,2] + x[4,3,2] + x[4,4,2]
   + x[4,5,2] + x[4,6,2] <= 20
 supply_4_time_3: x[4,0,3] + x[4,1,3] + x[4,2,3] + x[4,3,3] + x[4,4,3]
   + x[4,5,3] + x[4,6,3] <= 20
 supply_4_time_4: x[4,0,4] + x[4,1,4] + x[4,2,4] + x[4,3,4] + x[4,4,4]
   + x[4,5,4] + x[4,6,4] <= 20
 supply_4_time_5: x[4,0,5] + x[4,1,5] + x[4,2,5] + x[4,3,5] + x[4,4,5]
   + x[4,5,5] + x[4,6,5] <= 20
 supply_4_time_6: x[4,0,6] + x[4,1,6] + x[4,2,6] + x[4,3,6] + x[4,4,6]
   + x[4,5,6] + x[4,6,6] <= 20
 supply_4_time_7: x[4,0,7] + x[4,1,7] + x[4,2,7] + x[4,3,7] + x[4,4,7]
   + x[4,5,7] + x[4,6,7] <= 20
 supply_4_time_8: x[4,0,8] + x[4,1,8] + x[4,2,8] + x[4,3,8] + x[4,4,8]
   + x[4,5,8] + x[4,6,8] <= 20
 supply_4_time_9: x[4,0,9] + x[4,1,9] + x[4,2,9] + x[4,3,9] + x[4,4,9]
   + x[4,5,9] + x[4,6,9] <= 20
 demand_0_time_0: x[0,0,0] + x[1,0,0] + x[2,0,0] + x[3,0,0] + x[4,0,0]
   >= 1
 demand_0_time_1: x[0,0,1] + x[1,0,1] + x[2,0,1] + x[3,0,1] + x[4,0,1]
   >= 1
 demand_0_time_2: x[0,0,2] + x[1,0,2] + x[2,0,2] + x[3,0,2] + x[4,0,2]
   >= 1
 demand_0_time_3: x[0,0,3] + x[1,0,3] + x[2,0,3] + x[3,0,3] + x[4,0,3]
   >= 1
 demand_0_time_4: x[0,0,4] + x[1,0,4] + x[2,0,4] + x[3,0,4] + x[4,0,4]
   >= 1
 demand_0_time_5: x[0,0,5] + x[1,0,5] + x[2,0,5] + x[3,0,5] + x[4,0,5]
   >= 1
 demand_0_time_6: x[0,0,6] + x[1,0,6] + x[2,0,6] + x[3,0,6] + x[4,0,6]
   >= 1
 demand_0_time_7: x[0,0,7] + x[1,0,7] + x[2,0,7] + x[3,0,7] + x[4,0,7]
   >= 1
 demand_0_time_8: x[0,0,8] + x[1,0,8] + x[2,0,8] + x[3,0,8] + x[4,0,8]
   >= 1
 demand_0_time_9: x[0,0,9] + x[1,0,9] + x[2,0,9] + x[3,0,9] + x[4,0,9]
   >= 1
 demand_1_time_0: x[0,1,0] + x[1,1,0] + x[2,1,0] + x[3,1,0] + x[4,1,0]
   >= 1
 demand_1_time_1: x[0,1,1] + x[1,1,1] + x[2,1,1] + x[3,1,1] + x[4,1,1]
   >= 1
 demand_1_time_2: x[0,1,2] + x[1,1,2] + x[2,1,2] + x[3,1,2] + x[4,1,2]
   >= 1
 demand_1_time_3: x[0,1,3] + x[1,1,3] + x[2,1,3] + x[3,1,3] + x[4,1,3]
   >= 1
 demand_1_time_4: x[0,1,4] + x[1,1,4] + x[2,1,4] + x[3,1,4] + x[4,1,4]
   >= 1
 demand_1_time_5: x[0,1,5] + x[1,1,5] + x[2,1,5] + x[3,1,5] + x[4,1,5]
   >= 1
 demand_1_time_6: x[0,1,6] + x[1,1,6] + x[2,1,6] + x[3,1,6] + x[4,1,6]
   >= 1
 demand_1_time_7: x[0,1,7] + x[1,1,7] + x[2,1,7] + x[3,1,7] + x[4,1,7]
   >= 1
 demand_1_time_8: x[0,1,8] + x[1,1,8] + x[2,1,8] + x[3,1,8] + x[4,1,8]
   >= 1
 demand_1_time_9: x[0,1,9] + x[1,1,9] + x[2,1,9] + x[3,1,9] + x[4,1,9]
   >= 1
 demand_2_time_0: x[0,2,0] + x[1,2,0] + x[2,2,0] + x[3,2,0] + x[4,2,0]
   >= 1
 demand_2_time_1: x[0,2,1] + x[1,2,1] + x[2,2,1] + x[3,2,1] + x[4,2,1]
   >= 1
 demand_2_time_2: x[0,2,2] + x[1,2,2] + x[2,2,2] + x[3,2,2] + x[4,2,2]
   >= 1
 demand_2_time_3: x[0,2,3] + x[1,2,3] + x[2,2,3] + x[3,2,3] + x[4,2,3]
   >= 1
 demand_2_time_4: x[0,2,4] + x[1,2,4] + x[2,2,4] + x[3,2,4] + x[4,2,4]
   >= 1
 demand_2_time_5: x[0,2,5] + x[1,2,5] + x[2,2,5] + x[3,2,5] + x[4,2,5]
   >= 1
 demand_2_time_6: x[0,2,6] + x[1,2,6] + x[2,2,6] + x[3,2,6] + x[4,2,6]
   >= 1
 demand_2_time_7: x[0,2,7] + x[1,2,7] + x[2,2,7] + x[3,2,7] + x[4,2,7]
   >= 1
 demand_2_time_8: x[0,2,8] + x[1,2,8] + x[2,2,8] + x[3,2,8] + x[4,2,8]
   >= 1
 demand_2_time_9: x[0,2,9] + x[1,2,9] + x[2,2,9] + x[3,2,9] + x[4,2,9]
   >= 1
 demand_3_time_0: x[0,3,0] + x[1,3,0] + x[2,3,0] + x[3,3,0] + x[4,3,0]
   >= 1
 demand_3_time_1: x[0,3,1] + x[1,3,1] + x[2,3,1] + x[3,3,1] + x[4,3,1]
   >= 1
 demand_3_time_2: x[0,3,2] + x[1,3,2] + x[2,3,2] + x[3,3,2] + x[4,3,2]
   >= 1
 demand_3_time_3: x[0,3,3] + x[1,3,3] + x[2,3,3] + x[3,3,3] + x[4,3,3]
   >= 1
 demand_3_time_4: x[0,3,4] + x[1,3,4] + x[2,3,4] + x[3,3,4] + x[4,3,4]
   >= 1
 demand_3_time_5: x[0,3,5] + x[1,3,5] + x[2,3,5] + x[3,3,5] + x[4,3,5]
   >= 1
 demand_3_time_6: x[0,3,6] + x[1,3,6] + x[2,3,6] + x[3,3,6] + x[4,3,6]
   >= 1
 demand_3_time_7: x[0,3,7] + x[1,3,7] + x[2,3,7] + x[3,3,7] + x[4,3,7]
   >= 1
 demand_3_time_8: x[0,3,8] + x[1,3,8] + x[2,3,8] + x[3,3,8] + x[4,3,8]
   >= 1
 demand_3_time_9: x[0,3,9] + x[1,3,9] + x[2,3,9] + x[3,3,9] + x[4,3,9]
   >= 1
 demand_4_time_0: x[0,4,0] + x[1,4,0] + x[2,4,0] + x[3,4,0] + x[4,4,0]
   >= 1
 demand_4_time_1: x[0,4,1] + x[1,4,1] + x[2,4,1] + x[3,4,1] + x[4,4,1]
   >= 1
 demand_4_time_2: x[0,4,2] + x[1,4,2] + x[2,4,2] + x[3,4,2] + x[4,4,2]
   >= 1
 demand_4_time_3: x[0,4,3] + x[1,4,3] + x[2,4,3] + x[3,4,3] + x[4,4,3]
   >= 1
 demand_4_time_4: x[0,4,4] + x[1,4,4] + x[2,4,4] + x[3,4,4] + x[4,4,4]
   >= 1
 demand_4_time_5: x[0,4,5] + x[1,4,5] + x[2,4,5] + x[3,4,5] + x[4,4,5]
   >= 1
 demand_4_time_6: x[0,4,6] + x[1,4,6] + x[2,4,6] + x[3,4,6] + x[4,4,6]
   >= 1
 demand_4_time_7: x[0,4,7] + x[1,4,7] + x[2,4,7] + x[3,4,7] + x[4,4,7]
   >= 1
 demand_4_time_8: x[0,4,8] + x[1,4,8] + x[2,4,8] + x[3,4,8] + x[4,4,8]
   >= 1
 demand_4_time_9: x[0,4,9] + x[1,4,9] + x[2,4,9] + x[3,4,9] + x[4,4,9]
   >= 1
 demand_5_time_0: x[0,5,0] + x[1,5,0] + x[2,5,0] + x[3,5,0] + x[4,5,0]
   >= 1
 demand_5_time_1: x[0,5,1] + x[1,5,1] + x[2,5,1] + x[3,5,1] + x[4,5,1]
   >= 1
 demand_5_time_2: x[0,5,2] + x[1,5,2] + x[2,5,2] + x[3,5,2] + x[4,5,2]
   >= 1
 demand_5_time_3: x[0,5,3] + x[1,5,3] + x[2,5,3] + x[3,5,3] + x[4,5,3]
   >= 1
 demand_5_time_4: x[0,5,4] + x[1,5,4] + x[2,5,4] + x[3,5,4] + x[4,5,4]
   >= 1
 demand_5_time_5: x[0,5,5] + x[1,5,5] + x[2,5,5] + x[3,5,5] + x[4,5,5]
   >= 1
 demand_5_time_6: x[0,5,6] + x[1,5,6] + x[2,5,6] + x[3,5,6] + x[4,5,6]
   >= 1
 demand_5_time_7: x[0,5,7] + x[1,5,7] + x[2,5,7] + x[3,5,7] + x[4,5,7]
   >= 1
 demand_5_time_8: x[0,5,8] + x[1,5,8] + x[2,5,8] + x[3,5,8] + x[4,5,8]
   >= 1
 demand_5_time_9: x[0,5,9] + x[1,5,9] + x[2,5,9] + x[3,5,9] + x[4,5,9]
   >= 1
 demand_6_time_0: x[0,6,0] + x[1,6,0] + x[2,6,0] + x[3,6,0] + x[4,6,0]
   >= 1
 demand_6_time_1: x[0,6,1] + x[1,6,1] + x[2,6,1] + x[3,6,1] + x[4,6,1]
   >= 1
 demand_6_time_2: x[0,6,2] + x[1,6,2] + x[2,6,2] + x[3,6,2] + x[4,6,2]
   >= 1
 demand_6_time_3: x[0,6,3] + x[1,6,3] + x[2,6,3] + x[3,6,3] + x[4,6,3]
   >= 1
 demand_6_time_4: x[0,6,4] + x[1,6,4] + x[2,6,4] + x[3,6,4] + x[4,6,4]
   >= 1
 demand_6_time_5: x[0,6,5] + x[1,6,5] + x[2,6,5] + x[3,6,5] + x[4,6,5]
   >= 1
 demand_6_time_6: x[0,6,6] + x[1,6,6] + x[2,6,6] + x[3,6,6] + x[4,6,6]
   >= 1
 demand_6_time_7: x[0,6,7] + x[1,6,7] + x[2,6,7] + x[3,6,7] + x[4,6,7]
   >= 1
 demand_6_time_8: x[0,6,8] + x[1,6,8] + x[2,6,8] + x[3,6,8] + x[4,6,8]
   >= 1
 demand_6_time_9: x[0,6,9] + x[1,6,9] + x[2,6,9] + x[3,6,9] + x[4,6,9]
   >= 1
Bounds
End
